c ---- [ banner ] ------------------------------------------------------------
c
c Kissat SAT Solver
c 
c Copyright (c) 2021-2024 Armin Biere University of Freiburg
c Copyright (c) 2019-2021 Armin Biere Johannes Kepler University Linz
c 
c Version 4.0.1 43f02cf3e992cb44653b35e5cb26f93281552ae0
c gcc (Ubuntu 13.2.0-23ubuntu4) 13.2.0 -W -Wall -O3 -DNDEBUG
c Thu Sep 12 12:27:46 CEST 2024 Linux abryzen9 6.8.0-41-generic x86_64
c
c ---- [ parsing ] -----------------------------------------------------------
c
c opened and reading DIMACS file:
c
c   /data/artifact/AMulet2.0_artifact/exp4/cnf_dc2_64/64_64_U_SP_WT_CK_GenMul_dc2.cnf
c
c parsed 'p cnf 30700 134176' header
c closing input after reading 2685550 bytes (3 MB)
c finished parsing after 0.04 seconds
c
c ---- [ options ] -----------------------------------------------------------
c
c --stable=0                       (different from default '1')
c
c ---- [ solving ] -----------------------------------------------------------
c
c  seconds switched rate     size/glue tier1  binary           remaining
c         MB reductions conflicts size  tier2     irredundant
c          level restarts redundant glue  trail           variables
c
c *  0.04 10 0 0 0  0 0   0   0 0.0 0 0 0 0 0% 12590 121584 30697 100%
c (  0.06 13 0 0 0  0 0   0   0 0.0 0 0 0 0 0% 12590 121584 30697 100%
c .  0.07 13 0 0 0  0 0   0   0 0.0 0 0 0 0 0% 12586 121584 30697 100%
c c  0.18 18 0 0 0  0 0   0   0 0.0 0 0 0 0 0% 19470 108008 27253 89%
c d  0.19 18 0 0 0  0 0   0   0 0.0 0 0 0 0 0% 12582 108008 27253 89%
c =  0.25 18 0 0 0  0 0   0   0 0.0 0 0 0 0 0% 12976 108008 26992 88%
c d  0.26 18 0 0 0  0 0   0   0 0.0 0 0 0 0 0% 12454 108008 26992 88%
c f  0.39 19 0 0 0  0 0   0   0 0.0 0 0 0 0 0% 17308 100359 29716 97%
c e  0.55 27 0 0 0  0 0   0   0 0.0 0 0 0 0 0% 11153 108328 20721 67%
c )  0.55 27 0 0 0  0 0   0   0 0.0 0 0 0 0 0% 11153 108328 20721 67%
c {  0.56 27 0 0 0  0 0   0   0 0.0 0 0 2 6 0% 11153 108328 20721 67%
c -  0.67 27 311 0 1 159 42 1000 680 3.8 17 4 2 7 13% 11266 108322 20721 67%
c -  0.89 29 285 0 2 337 48 2000 1346 4.9 27 6 2 9 22% 11328 108322 20721 67%
c c  1.04 26 330 0 2 402 47 2504 1775 4.2 30 7 2 10 22% 11447 107907 20661 67%
c d  1.05 26 330 0 2 402 47 2504 1759 4.2 30 7 2 10 22% 11327 107907 20661 67%
c u  1.06 26 330 0 2 402 47 2504 1543 4.2 30 7 2 10 22% 11333 107907 20661 67%
c v  1.07 26 330 0 2 402 47 2504 1227 4.2 30 7 2 10 22% 11333 107907 20661 67%
c w  1.10 26 330 0 2 402 47 2504 1227 4.2 30 7 2 10 22% 11333 107907 20661 67%
c x  1.11 26 330 0 2 402 47 2504 1227 4.2 30 7 2 10 22% 11428 107709 20661 67%
c =  1.17 26 330 0 2 402 47 2504 1227 4.2 30 7 2 10 22% 11940 107709 20405 66%
c
c  seconds   switched   rate       size/glue tier1     binary           remaining
c         MB  reductions conflicts       size  tier2       irredundant
c           level restarts    redundant    glue    trail           variables
c
c d  1.17 26 330 0 2 402 47 2504 1224 4.2 30 7 2 10 22% 11428 107709 20405 66%
c t  1.18 26 330 0 2 402 47 2504 1224 4.2 30 7 2 10 22% 11422 107709 20405 66%
c f  1.20 26 330 0 2 402 47 2504 1224 4.2 30 7 2 10 22% 11982 106561 20979 68%
c u  1.26 26 330 0 2 402 47 2504 1184 4.2 30 7 2 10 22% 11986 106561 20979 68%
c v  1.27 26 330 0 2 402 47 2504 1145 4.2 30 7 2 10 22% 11986 106561 20979 68%
c w  1.29 26 330 0 2 402 47 2504 1144 4.2 30 7 2 10 22% 11986 106561 20979 68%
c x  1.31 28 330 0 2 402 47 2504 1144 4.2 30 7 2 10 22% 11986 106010 20979 68%
c =  1.38 28 330 0 2 402 47 2504 1144 4.2 30 7 2 10 22% 12296 106010 20824 68%
c d  1.39 28 330 0 2 402 47 2504 1142 4.2 30 7 2 10 22% 11982 106010 20824 68%
c f  1.42 28 330 0 2 402 47 2504 1142 4.2 30 7 2 10 22% 12020 105952 20843 68%
c -  1.62 28 304 0 3 556 45 3414 1634 4.2 32 8 3 11 23% 12052 105952 20843 68%
c -  1.87 28 318 0 4 704 38 5148 2641 4.2 30 7 2 10 23% 12138 105946 20843 68%
c -  2.14 28 346 0 5 903 36 7150 3657 4.1 29 7 2 11 23% 12237 105940 20843 68%
c d  2.28 28 365 0 5 996 37 7709 4110 4.1 29 7 2 11 23% 12172 105940 20801 68%
c u  2.30 28 365 0 5 996 37 7709 3643 4.1 29 7 2 11 23% 12192 105940 20801 68%
c v  2.33 28 365 0 5 996 37 7709 3084 4.1 29 7 2 11 23% 12194 105940 20801 68%
c w  2.36 28 365 0 5 996 37 7709 3084 4.1 29 7 2 11 23% 12194 105940 20801 68%
c x  2.39 28 365 0 5 996 37 7709 3083 4.1 29 7 2 11 23% 12198 105507 20801 68%
c =  2.48 28 365 0 5 996 37 7709 3083 4.1 29 7 2 11 23% 12878 105507 20461 67%
c d  2.49 28 365 0 5 996 37 7709 3077 4.1 29 7 2 11 23% 12116 105507 20456 67%
c
c  seconds   switched   rate       size/glue tier1     binary           remaining
c         MB  reductions conflicts       size  tier2       irredundant
c           level restarts    redundant    glue    trail           variables
c
c t  2.50 28 365 0 5 996 37 7709 3077 4.1 29 7 2 11 23% 12111 105507 20456 67%
c f  2.54 28 365 0 5 996 37 7709 3077 4.1 29 7 2 11 23% 12619 104721 20715 67%
c u  2.60 28 365 0 5 996 37 7709 3005 4.1 29 7 2 11 23% 12619 104721 20715 67%
c v  2.62 28 365 0 5 996 37 7709 2902 4.1 29 7 2 11 23% 12619 104721 20715 67%
c w  2.66 28 365 0 5 996 37 7709 2893 4.1 29 7 2 11 23% 12619 104721 20715 67%
c x  2.68 28 365 0 5 996 37 7709 2893 4.1 29 7 2 11 23% 12619 104713 20715 67%
c =  2.77 28 365 0 5 996 37 7709 2893 4.1 29 7 2 11 23% 13607 104713 20221 66%
c d  2.78 28 365 0 5 996 37 7709 2872 4.1 29 7 2 11 23% 12502 104713 20221 66%
c t  2.79 28 365 0 5 996 37 7709 2872 4.1 29 7 2 11 23% 12435 104713 20221 66%
c f  2.82 28 365 0 5 996 37 7709 2872 4.1 29 7 2 11 23% 14386 101780 21197 69%
c -  3.15 28 381 0 6 1163 39 9386 3762 4.4 31 7 2 11 24% 14455 101767 21197 69%
c o  3.32 28 382 0 6 1237 39 10040 4317 4.5 34 7 2 11 25% 14482 101767 21197 69%
c -  3.59 28 397 0 7 1379 38 11835 5177 4.5 33 7 2 10 25% 14573 101759 21197 69%
c s  3.73 28 387 0 7 1414 37 12515 5783 4.5 33 7 2 10 25% 14591 95126 21197 69%
c e  3.81 28 387 0 7 1414 37 12515 5783 4.5 33 7 2 10 25% 13477 95998 20533 67%
c 2  3.81 28 387 0 7 1414 37 12515 5783 4.5 33 7 2 10 25% 13476 95998 20533 67%
c s  3.82 28 387 0 7 1414 37 12515 5783 4.5 33 7 2 10 25% 13482 95404 20533 67%
c e  3.82 28 387 0 7 1414 37 12515 5783 4.5 33 7 2 10 25% 13473 95412 20530 67%
c ^  3.82 28 387 0 7 1414 37 12515 5783 4.5 33 7 2 10 25% 13473 95412 20530 67%
c -  4.12 28 376 0 8 1543 36 14481 6238 4.4 32 7 2 10 26% 13539 95406 20530 67%
c
c  seconds   switched    rate        size/glue tier1     binary          remaining
c         MB  reductions   conflicts       size  tier2       irredundant
c           level  restarts     redundant    glue    trail          variables
c
c d  4.34 28 366 0 8 1653 35 15794 7355 4.3 31 7 2 10 26% 13224 95393 20314 66%
c u  4.37 28 366 0 8 1653 35 15794 6362 4.3 31 7 2 10 26% 13248 95393 20314 66%
c v  4.41 28 366 0 8 1653 35 15794 5512 4.3 31 7 2 10 26% 13248 95393 20314 66%
c w  4.49 28 366 0 8 1653 35 15794 5481 4.3 31 7 2 10 26% 13248 95393 20314 66%
c =  4.65 28 366 0 8 1653 35 15794 5481 4.3 31 7 2 10 26% 13932 95393 19972 65%
c d  4.65 28 366 0 8 1653 35 15794 5433 4.3 31 7 2 10 26% 13118 95393 19969 65%
c t  4.67 28 366 0 8 1653 35 15794 5433 4.3 31 7 2 10 26% 13037 95393 19969 65%
c f  4.71 28 366 0 8 1653 35 15794 5433 4.3 31 7 2 10 26% 13136 95187 20021 65%
c u  4.75 28 366 0 8 1653 35 15794 5265 4.3 31 7 2 10 26% 13139 95187 20021 65%
c v  4.77 28 366 0 8 1653 35 15794 5175 4.3 31 7 2 10 26% 13139 95187 20021 65%
c w  4.83 28 366 0 8 1653 35 15794 5161 4.3 31 7 2 10 26% 13139 95187 20021 65%
c x  4.86 28 366 0 8 1653 35 15794 5161 4.3 31 7 2 10 26% 13207 94730 20021 65%
c =  5.02 28 366 0 8 1653 35 15794 5161 4.3 31 7 2 10 26% 14319 94730 19465 63%
c d  5.03 28 366 0 8 1653 35 15794 5121 4.3 31 7 2 10 26% 12822 94730 19465 63%
c t  5.04 28 366 0 8 1653 35 15794 5121 4.3 31 7 2 10 26% 12813 94730 19465 63%
c -  5.24 28 359 0 9 1725 34 17311 5718 4.3 30 7 2 10 26% 12855 94726 19465 63%
c o  5.64 28 352 0 9 1911 32 20237 8370 4.1 29 7 2 10 26% 12927 94725 19465 63%
c -  5.70 28 352 0 10 1929 32 20311 7457 4.2 30 7 2 9 27% 12928 94725 19465 63%
c -  6.30 28 336 0 11 2246 32 23474 9045 4.2 32 7 2 9 27% 13007 94721 19465 63%
c s  6.42 28 336 0 11 2283 31 25019 10273 4.2 30 7 2 9 27% 13095 91657 19465 63%
c
c  seconds   switched     rate         size/glue tier1    binary          remaining
c         MB   reductions   conflicts        size  tier2      irredundant
c           level   restarts      redundant    glue   trail          variables
c
c e  6.50 28 336 0 11 2283 31 25019 10273 4.2 30 7 2 9 27% 10654 94980 18071 59%
c s  6.51 28 336 0 11 2283 31 25019 10273 4.2 30 7 2 9 27% 10681 94508 18071 59%
c e  6.51 28 336 0 11 2283 31 25019 10273 4.2 30 7 2 9 27% 10668 94522 18068 59%
c ^  6.51 28 336 0 11 2283 31 25019 10273 4.2 30 7 2 9 27% 10668 94522 18068 59%
c -  6.82 28 336 0 12 2450 31 26791 9632 4.2 31 7 2 9 27% 10722 94521 18068 59%
c c  6.90 28 335 0 12 2473 31 26923 9742 4.2 31 7 2 9 27% 10771 94276 18027 59%
c d  6.90 28 335 0 12 2473 31 26923 9675 4.2 31 7 2 9 27% 10564 94276 17952 58%
c u  6.93 28 335 0 12 2473 31 26923 8387 4.2 31 7 2 9 27% 10586 94276 17952 58%
c v  6.96 28 335 0 12 2473 31 26923 7402 4.2 31 7 2 9 27% 10587 94276 17952 58%
c w  6.98 28 335 0 12 2473 31 26923 7398 4.2 31 7 2 9 27% 10587 94276 17952 58%
c x  7.03 28 335 0 12 2473 31 26923 7398 4.2 31 7 2 9 27% 10695 92652 17952 58%
c =  7.29 28 335 0 12 2473 31 26923 7398 4.2 31 7 2 9 27% 14207 92652 16196 53%
c d  7.30 28 335 0 12 2473 31 26923 7202 4.2 31 7 2 9 27% 10575 92652 16195 53%
c t  7.32 28 335 0 12 2473 31 26923 7202 4.2 31 7 2 9 27% 10498 92652 16195 53%
c f  7.39 28 335 0 12 2473 31 26923 7202 4.2 31 7 2 9 27% 10489 92573 16213 53%
c u  7.45 28 335 0 12 2473 31 26923 6709 4.2 31 7 2 9 27% 10500 92573 16213 53%
c v  7.49 28 335 0 12 2473 31 26923 6574 4.2 31 7 2 9 27% 10500 92573 16213 53%
c w  7.51 28 335 0 12 2473 31 26923 6568 4.2 31 7 2 9 27% 10500 92573 16213 53%
c x  7.58 28 335 0 12 2473 31 26923 6567 4.2 31 7 2 9 27% 10524 85166 16213 53%
c =  7.77 28 335 0 12 2473 31 26923 6567 4.2 31 7 2 9 27% 12706 85160 15122 49%
c
c  seconds   switched     rate        size/glue tier1    binary          remaining
c         MB   reductions   conflicts       size  tier2      irredundant
c           level   restarts     redundant    glue   trail          variables
c
c d  7.78 28 335 0 12 2473 31 26923 6511 4.2 31 7 2 9 27% 10479 85160 15122 49%
c t  7.79 28 335 0 12 2473 31 26923 6511 4.2 31 7 2 9 27% 10374 85160 15122 49%
c f  7.82 28 335 0 12 2473 31 26923 6511 4.2 31 7 2 9 27% 10384 85088 15139 49%
c -  8.29 29 314 0 13 2726 30 30255 8459 4.0 30 8 2 8 27% 10451 85085 15139 49%
c -  8.59 29 305 0 14 2907 28 33862 10380 3.9 29 7 2 8 26% 10516 85079 15139 49%
c -  8.92 29 299 0 15 3103 27 37605 11937 3.8 28 7 2 8 26% 10574 85078 15139 49%
c o  9.18 29 289 0 15 3282 27 40244 14187 3.8 27 7 2 8 26% 10618 85075 15139 49%
c c  9.37 29 287 0 15 3384 27 41253 15120 3.7 27 7 2 8 26% 10661 84854 15094 49%
c d  9.37 29 287 0 15 3384 27 41253 14968 3.7 27 7 2 8 26% 10571 84854 15094 49%
c u  9.42 29 287 0 15 3384 27 41253 12678 3.7 27 7 2 8 26% 10595 84854 15094 49%
c v  9.45 29 287 0 15 3384 27 41253 11838 3.7 27 7 2 8 26% 10599 84854 15094 49%
c w  9.48 29 287 0 15 3384 27 41253 11838 3.7 27 7 2 8 26% 10599 84854 15094 49%
c x  9.52 29 287 0 15 3384 27 41253 11837 3.7 27 7 2 8 26% 10604 78553 15094 49%
c d  9.67 29 287 0 15 3384 27 41253 11829 3.7 27 7 2 8 26% 10596 78553 15090 49%
c t  9.68 29 287 0 15 3384 27 41253 11829 3.7 27 7 2 8 26% 10568 78553 15090 49%
c f  9.69 29 287 0 15 3384 27 41253 11829 3.7 27 7 2 8 26% 10571 78538 15094 49%
c c  9.73 29 287 0 15 3384 27 41253 11809 3.7 27 7 2 8 26% 10590 78478 15086 49%
c d  9.73 29 287 0 15 3384 27 41253 11809 3.7 27 7 2 8 26% 10574 78478 15086 49%
c u  9.76 29 287 0 15 3384 27 41253 11395 3.7 27 7 2 8 26% 10581 78478 15086 49%
c v  9.80 29 287 0 15 3384 27 41253 10614 3.7 27 7 2 8 26% 10587 78478 15086 49%
c
c  seconds   switched     rate         size/glue tier1    binary          remaining
c         MB   reductions   conflicts        size  tier2      irredundant
c           level   restarts      redundant    glue   trail          variables
c
c w  9.84 29 287 0 15 3384 27 41253 10614 3.7 27 7 2 8 26% 10587 78478 15086 49%
c x  9.88 29 287 0 15 3384 27 41253 10612 3.7 27 7 2 8 26% 10588 77133 15086 49%
c d  9.88 29 287 0 15 3384 27 41253 10610 3.7 27 7 2 8 26% 10586 77133 15085 49%
c t  9.89 29 287 0 15 3384 27 41253 10610 3.7 27 7 2 8 26% 10583 77133 15085 49%
c -  9.97 29 286 0 16 3429 27 41477 9488 3.8 28 7 2 7 26% 10585 77133 15085 49%
c - 10.30 29 286 0 17 3636 26 45477 11449 3.7 27 7 2 7 25% 10638 77131 15085 49%
c - 10.56 29 287 0 18 3820 25 49600 13278 3.6 26 7 2 7 25% 10703 77131 15085 49%
c s 10.85 29 283 0 18 4014 25 52121 15497 3.6 26 7 2 7 25% 10747 73571 15085 49%
c e 10.91 29 283 0 18 4014 25 52121 15497 3.6 26 7 2 7 25% 9720 75059 14584 48%
c 2 10.91 29 283 0 18 4014 25 52121 15497 3.6 26 7 2 7 25% 9713 75059 14584 48%
c s 10.92 29 283 0 18 4014 25 52121 15497 3.6 26 7 2 7 25% 9729 74707 14584 48%
c e 10.92 29 283 0 18 4014 25 52121 15497 3.6 26 7 2 7 25% 9688 74746 14566 47%
c ^ 10.92 29 283 0 18 4014 25 52121 15497 3.6 26 7 2 7 25% 9688 74746 14566 47%
c - 11.14 29 277 0 19 4171 25 53843 13760 3.6 26 7 2 7 25% 9699 74745 14566 47%
c - 11.69 29 270 0 20 4580 25 58201 15668 3.6 26 7 2 6 25% 9742 74744 14566 47%
c d 11.70 29 271 0 20 4580 24 58889 16193 3.6 26 7 2 6 25% 9725 74743 14556 47%
c u 11.75 29 271 0 20 4580 24 58889 13939 3.6 26 7 2 6 25% 9756 74743 14556 47%
c v 11.79 29 271 0 20 4580 24 58889 13075 3.6 26 7 2 6 25% 9757 74743 14556 47%
c w 11.79 29 271 0 20 4580 24 58889 13036 3.6 26 7 2 6 25% 9757 74743 14556 47%
c x 11.85 29 271 0 20 4580 24 58889 13029 3.6 26 7 2 6 25% 9783 74068 14556 47%
c
c  seconds   switched     rate         size/glue tier1    binary         remaining
c         MB   reductions   conflicts        size  tier2     irredundant
c           level   restarts      redundant    glue   trail         variables
c
c = 12.02 29 271 0 20 4580 24 58889 13029 3.6 26 7 2 6 25% 9871 74068 14512 47%
c d 12.03 29 271 0 20 4580 24 58889 12855 3.6 26 7 2 6 25% 9768 74068 14508 47%
c t 12.04 29 271 0 20 4580 24 58889 12855 3.6 26 7 2 6 25% 9743 74068 14508 47%
c f 12.06 29 271 0 20 4580 24 58889 12855 3.6 26 7 2 6 25% 9747 74012 14517 47%
c c 12.10 29 271 0 20 4580 24 58889 12808 3.6 26 7 2 6 25% 9795 73840 14495 47%
c d 12.10 29 271 0 20 4580 24 58889 12808 3.6 26 7 2 6 25% 9751 73840 14495 47%
c u 12.14 29 271 0 20 4580 24 58889 12284 3.6 26 7 2 6 25% 9762 73840 14495 47%
c v 12.17 29 271 0 20 4580 24 58889 11610 3.6 26 7 2 6 25% 9764 73840 14495 47%
c w 12.17 29 271 0 20 4580 24 58889 11603 3.6 26 7 2 6 25% 9764 73840 14495 47%
c x 12.25 29 271 0 20 4580 24 58889 11601 3.6 26 7 2 6 25% 9789 73357 14495 47%
c = 12.43 29 271 0 20 4580 24 58889 11601 3.6 26 7 2 6 25% 10343 73357 14218 46%
c d 12.44 29 271 0 20 4580 24 58889 11421 3.6 26 7 2 6 25% 9754 73357 14216 46%
c t 12.45 29 271 0 20 4580 24 58889 11421 3.6 26 7 2 6 25% 9727 73357 14216 46%
c f 12.46 29 271 0 20 4580 24 58889 11421 3.6 26 7 2 6 25% 9730 73340 14218 46%
c - 12.80 29 267 0 21 4814 24 62673 13161 3.5 26 7 2 6 25% 9768 73339 14218 46%
c - 13.19 29 258 0 22 5117 23 67255 15346 3.5 25 7 2 6 24% 9848 73335 14218 46%
c o 13.63 29 251 0 22 5412 23 70290 18127 3.5 25 7 2 6 24% 9875 73334 14218 46%
c - 13.87 29 248 0 23 5573 23 71946 17221 3.5 26 7 2 6 24% 9905 73332 14218 46%
c - 14.44 29 243 0 24 5948 23 76742 18925 3.5 26 7 2 6 24% 9984 73329 14218 46%
c c 14.94 29 239 0 24 6277 23 79966 21812 3.5 26 7 2 6 25% 10120 72497 14065 46%
c
c  seconds   switched     rate         size/glue tier1    binary         remaining
c         MB   reductions   conflicts        size  tier2     irredundant
c           level   restarts      redundant    glue   trail         variables
c
c d 14.95 29 239 0 24 6277 23 79966 21084 3.5 26 7 2 6 25% 9814 72497 14065 46%
c u 15.01 29 239 0 24 6277 23 79966 17699 3.5 26 7 2 6 25% 9838 72497 14065 46%
c v 15.06 29 239 0 24 6277 23 79966 16537 3.5 26 7 2 6 25% 9838 72497 14065 46%
c w 15.10 29 239 0 24 6277 23 79966 16537 3.5 26 7 2 6 25% 9838 72497 14065 46%
c x 15.17 29 239 0 24 6277 23 79966 16535 3.5 26 7 2 6 25% 9848 72005 14065 46%
c = 15.38 29 239 0 24 6277 23 79966 16535 3.5 26 7 2 6 25% 10544 72005 13717 45%
c d 15.39 29 239 0 24 6277 23 79966 15926 3.5 26 7 2 6 25% 9762 72005 13708 45%
c t 15.40 29 239 0 24 6277 23 79966 15926 3.5 26 7 2 6 25% 9701 72005 13708 45%
c f 15.42 29 239 0 24 6277 23 79966 15926 3.5 26 7 2 6 25% 9719 71892 13723 45%
c c 15.45 29 239 0 24 6277 23 79966 15910 3.5 26 7 2 6 25% 9735 71842 13715 45%
c d 15.46 29 239 0 24 6277 23 79966 15910 3.5 26 7 2 6 25% 9719 71842 13715 45%
c u 15.51 29 239 0 24 6277 23 79966 15107 3.5 26 7 2 6 25% 9730 71842 13715 45%
c v 15.55 29 239 0 24 6277 23 79966 14239 3.5 26 7 2 6 25% 9738 71842 13715 45%
c w 15.63 29 239 0 24 6277 23 79966 14238 3.5 26 7 2 6 25% 9738 71842 13715 45%
c x 15.69 29 239 0 24 6277 23 79966 14237 3.5 26 7 2 6 25% 9753 68773 13715 45%
c = 15.99 29 239 0 24 6277 23 79966 14237 3.5 26 7 2 6 25% 10385 68705 13393 44%
c d 16.00 29 239 0 24 6277 23 79966 14022 3.5 26 7 2 6 25% 9703 68705 13393 44%
c t 16.01 29 239 0 24 6277 23 79966 14022 3.5 26 7 2 6 25% 9612 68705 13393 44%
c f 16.02 29 239 0 24 6277 23 79966 14022 3.5 26 7 2 6 25% 9631 68614 13404 44%
c - 16.26 29 237 0 25 6431 23 81640 12313 3.5 26 8 1 6 25% 9628 68610 13404 44%
c
c  seconds   switched     rate         size/glue tier1    binary         remaining
c         MB   reductions   conflicts        size  tier2     irredundant
c           level   restarts      redundant    glue   trail         variables
c
c - 16.81 29 232 0 26 6803 23 86641 14009 3.5 26 8 1 6 25% 9661 68609 13404 44%
c i 17.10 29 228 0 26 6999 23 89826 16802 3.4 26 8 1 6 24% 9708 68607 13403 44%
c i 17.10 29 228 0 26 6999 23 89867 16826 3.4 26 8 1 6 24% 9712 68607 13402 44%
c i 17.21 29 225 0 26 7084 23 91415 18212 3.4 26 8 1 6 24% 9729 68607 13401 44%
c - 17.23 29 224 0 27 7097 22 91740 15550 3.4 26 8 1 6 24% 9721 68607 13401 44%
c i 17.45 29 223 0 27 7244 23 93080 16767 3.4 26 8 1 6 24% 9736 68607 13400 44%
c i 17.73 29 220 0 27 7444 22 95410 18853 3.4 26 8 1 6 24% 9769 68605 13399 44%
c s 17.82 29 220 0 27 7521 23 95813 19247 3.4 26 8 1 6 24% 9772 66782 13397 44%
c e 17.90 29 220 0 27 7521 23 95813 19247 3.4 26 8 1 6 24% 6419 74705 11739 38%
c 2 17.90 29 220 0 27 7521 23 95813 19247 3.4 26 8 1 6 24% 6412 74705 11739 38%
c s 17.91 29 220 0 27 7521 23 95813 19247 3.4 26 8 1 6 24% 6438 74117 11739 38%
c e 17.92 29 220 0 27 7521 23 95813 19247 3.4 26 8 1 6 24% 6395 74265 11697 38%
c ^ 17.92 29 220 0 27 7521 23 95813 19247 3.4 26 8 1 6 24% 6395 74265 11697 38%
c - 18.06 29 218 0 28 7620 22 96937 12281 3.4 26 8 1 6 24% 6419 74262 11697 38%
c i 18.18 29 215 0 28 7708 22 98701 13746 3.4 25 8 1 6 24% 6447 74262 11696 38%
c - 18.73 29 212 0 29 8155 23 102228 14431 3.4 26 8 1 6 24% 6477 74260 11696 38%
c i 18.85 29 212 0 29 8259 23 103422 15434 3.3 26 8 1 6 24% 6494 74259 11695 38%
c i 19.00 29 211 0 29 8360 22 104460 16391 3.3 26 8 1 6 24% 6498 74259 11694 38%
c d 19.03 29 211 0 29 8386 22 104617 16365 3.3 26 8 1 6 24% 6437 74226 11661 38%
c d 19.04 29 211 0 29 8386 22 104617 16363 3.3 26 8 1 6 24% 6433 74226 11659 38%
c
c  seconds   switched     rate          size/glue tier1    binary         remaining
c         MB   reductions   conflicts         size  tier2     irredundant
c           level   restarts       redundant    glue   trail         variables
c
c u 19.07 29 211 0 29 8386 22 104617 14629 3.3 26 8 1 6 24% 6461 74226 11659 38%
c v 19.13 29 211 0 29 8386 22 104617 12279 3.3 26 8 1 6 24% 6472 74226 11659 38%
c w 19.22 29 211 0 29 8386 22 104617 12271 3.3 26 8 1 6 24% 6472 74226 11659 38%
c x 19.27 29 211 0 29 8386 22 104617 12271 3.3 26 8 1 6 24% 6472 74203 11659 38%
c = 19.62 29 211 0 29 8386 22 104617 12271 3.3 26 8 1 6 24% 6798 74036 11478 37%
c d 19.63 29 211 0 29 8386 22 104617 11854 3.3 26 8 1 6 24% 6404 74036 11478 37%
c t 19.64 29 211 0 29 8386 22 104617 11854 3.3 26 8 1 6 24% 6342 74036 11478 37%
c f 19.69 29 211 0 29 8386 22 104617 11854 3.3 26 8 1 6 24% 6366 73860 11493 37%
c c 19.72 29 211 0 29 8386 22 104617 11845 3.3 26 8 1 6 24% 6359 73824 11484 37%
c d 19.72 29 211 0 29 8386 22 104617 11845 3.3 26 8 1 6 24% 6349 73824 11484 37%
c u 19.75 29 211 0 29 8386 22 104617 11370 3.3 26 8 1 6 24% 6351 73824 11484 37%
c v 19.78 29 211 0 29 8386 22 104617 10873 3.3 26 8 1 6 24% 6353 73824 11484 37%
c w 19.91 29 211 0 29 8386 22 104617 10711 3.3 26 8 1 6 24% 6353 73824 11484 37%
c = 20.26 29 211 0 29 8386 22 104617 10711 3.3 26 8 1 6 24% 6534 73627 11371 37%
c d 20.26 29 211 0 29 8386 22 104617 10493 3.3 26 8 1 6 24% 6352 73623 11371 37%
c t 20.27 29 211 0 29 8386 22 104617 10493 3.3 26 8 1 6 24% 6300 73623 11371 37%
c f 20.28 29 211 0 29 8386 22 104617 10493 3.3 26 8 1 6 24% 6302 73611 11372 37%
c i 20.30 29 210 0 29 8393 22 104818 10639 3.3 26 8 1 6 24% 6306 73611 11354 37%
c i 20.30 29 210 0 29 8393 22 104819 10639 3.3 26 8 1 6 24% 6306 73611 11350 37%
c } 20.30 29 210 0 29 8393 22 104822 10639 3.3 26 8 1 6 24% 6307 73611 11348 37%
c
c  seconds   switched     rate          size/glue tier1    binary         remaining
c         MB   reductions   conflicts         size  tier2     irredundant
c           level   restarts       redundant    glue   trail         variables
c
c 0 20.30 29 210 0 29 8393 22 104822 10639 3.3 26 8 1 6 24% 6307 73611 11348 37%
c
c ---- [ result ] ------------------------------------------------------------
c
s UNSATISFIABLE
c
c ---- [ profiling ] ---------------------------------------------------------
c
c          12.93   63.71 %  search
c          12.93   63.71 %  focused
c           6.80   33.51 %  simplify
c           6.69   32.99 %  probe
c           2.84   13.99 %  sweep
c           2.30   11.31 %  vivify
c           0.56    2.77 %  factor
c           0.48    2.39 %  preprocess
c           0.48    2.38 %  congruence
c           0.43    2.10 %  eliminate
c           0.38    1.85 %  substitute
c           0.15    0.76 %  fastel
c           0.12    0.59 %  reduce
c           0.10    0.49 %  transitive
c           0.08    0.39 %  subsume
c           0.04    0.21 %  lucky
c           0.04    0.20 %  backbone
c           0.04    0.18 %  parse
c =============================================
c          20.30  100.00 %  total
c
c ---- [ statistics ] --------------------------------------------------------
c
c chronological:                         4845                5 %  conflicts
c conflicts:                           104822             5164.65 per second
c congruent:                             3786               12 %  variables
c decisions:                          2319505               22.13 per conflict
c eliminated:                           13278               43 %  variables
c factored:                              4696               15 %  variables
c fast_eliminated:                       8995               68 %  eliminated
c fast_strengthened:                       22                2 %  per strengthened
c fast_subsumed:                           92                1 %  per subsumed
c iterations:                              11                0 %  variables
c propagations:                      94833314          4672504    per second
c reductions:                              29             3615    interval
c reordered:                                4            26206    interval
c restarts:                              8393               12    interval
c strengthened:                          1351                0 %  checks
c substituted:                          10681               35 %  variables
c subsumed:                             17051                1 %  checks
c switched:                                 0                0    interval
c vivified:                             60369               13 %  checks
c
c ---- [ glue usage ] --------------------------------------------------------
c
c focused glue 1   used 134064 clauses 52.54% accumulated 52.54% tier1
c focused glue 2   used  56365 clauses 22.09% accumulated 74.63%
c focused glue 3-4 used  30198 clauses 11.84% accumulated 86.47%
c focused glue 5   used   7618 clauses  2.99% accumulated 89.45%
c focused glue 6   used   5488 clauses  2.15% accumulated 91.60% tier2
c
c ---- [ resources ] ---------------------------------------------------------
c
c maximum-resident-set-size:         30642176 bytes         29 MB
c process-time:                            20s              20.30 seconds
c
c ---- [ shutting down ] -----------------------------------------------------
c
c exit 20
